Minimize
obj: 3x_1 + 2x_2 + 2x_3 + 4x_4 + 1x_5 + 1x_6 + 1x_7 + 5x_8 + 3x_9 + 2x_10 + 3x_11 + 1x_12 + 2x_13 + 1x_14 + 2x_15 + 2x_16 + 1x_17 + 2x_18 + 2x_19 + 4x_20 + 1x_21 + 1x_22 + 3x_23 + 3x_24 + 3x_25 + 2x_26 + 2x_27 + 1x_28 + 1x_29 + 5x_30
Subject To
x_31 = 5
x_32 = 1
x_33 = 1
x_34 = 1
x_35 = 1
x_36 = 1
x_3 - x_27 +  x_1 - x_23 +  x_2 - x_16 = 0
x_31 +  x_6 - x_7 +  x_5 - x_29 +  x_4 - x_20 = 0
x_8 - x_30 +  x_7 - x_6 = 0
x_9 - x_24 +  x_10 - x_13 = 0
-x_32 +  x_11 - x_25 +  x_12 - x_14 = 0
x_13 - x_10 +  x_14 - x_12 - x_33 = 0
x_15 - x_18 +  x_16 - x_2 +  x_17 - x_21 = 0
-x_34 +  x_18 - x_15 = 0
x_19 - x_26 - x_35 = 0
x_22 - x_28 +  x_21 - x_17 +  x_20 - x_4 = 0
x_23 - x_1 - x_36 +  x_25 - x_11 +  x_24 - x_9 = 0
x_26 - x_19 +  x_27 - x_3 +  x_28 - x_22 = 0
x_29 - x_5 +  x_30 - x_8 = 0
Bounds
x_1 >= 0
x_2 >= 0
x_3 >= 0
x_4 >= 0
x_5 >= 0
x_6 >= 0
x_7 >= 0
x_8 >= 0
x_9 >= 0
x_10 >= 0
x_11 >= 0
x_12 >= 0
x_13 >= 0
x_14 >= 0
x_15 >= 0
x_16 >= 0
x_17 >= 0
x_18 >= 0
x_19 >= 0
x_20 >= 0
x_21 >= 0
x_22 >= 0
x_23 >= 0
x_24 >= 0
x_25 >= 0
x_26 >= 0
x_27 >= 0
x_28 >= 0
x_29 >= 0
x_30 >= 0
x_31 >= 0
x_32 >= 0
x_33 >= 0
x_34 >= 0
x_35 >= 0
x_36 >= 0
General
Binaries
End
